WARNING: for repeatability, setting FPU to use double precision
============================[ Problem Statistics ]=============================
|                                                                             |
|  Number of variables:        108144                                         |
|  Number of clauses:          417258                                         |
|  Parse time:                   0.09 s                                       |
|                                                                             |
c ============================[ Search Statistics ]==============================
c | Conflicts |          ORIGINAL         |          LEARNT          | Progress |
c |           |    Vars  Clauses Literals |    Limit  Clauses Lit/Cl |          |
c ===============================================================================
c Switched to VSIDS.
c Switched to LRB.
c Switched to VSIDS.
c Switched to LRB.
c Switched to VSIDS.
c Switched to LRB.
c Switched to VSIDS.
c Switched to LRB.
c Switched to VSIDS.
c Switched to LRB.
c Switched to VSIDS.
c Switched to LRB.
c Switched to VSIDS.
c Switched to LRB.
c Switched to VSIDS.
c Switched to LRB.
c Switched to VSIDS.
c Switched to LRB.
c Switched to VSIDS.
c Switched to LRB.
c Switched to VSIDS.
c Switched to LRB.
c Switched to VSIDS.
c Switched to LRB.
c Switched to VSIDS.
c Switched to LRB.
c Switched to VSIDS.
c Switched to LRB.
c Switched to VSIDS.
c Switched to LRB.
c Switched to VSIDS.
c ===============================================================================
restarts                  : 17293
conflicts                 : 3972786        (1960 /sec)
decisions                 : 35986704       (0.00 % random) (17755 /sec)
propagations              : 6160084072     (3039323 /sec)
conflict literals         : 220336160      (44.27 % deleted)

conflicts w/ DIP found    : 2390791        (60.18 % of conflicts)
conflicts w/ dangerous DIP: 0              (0.00 % of conflicts)
conflicts w/ DIP-learning : 2185           (0.05 % of conflicts)
decisions on ext vars     : 117795         (0.33 % of decisions)
total ext vars            : 324         
tried delete ext vars     : 0           
deleted ext vars          : 0           
max ext vars              : 324         

Memory used               : 412.00 MB
CPU time                  : 2026.8 s
DIP computation time      : 43.1639 s (2.13 % of total time)
ER_sel time               : 4.26837 s
ER_add time               : 0.003958 s
ER_delC time              : 0 s
ER_delV time              : 0 s
ER_sub time               : 5.99647 s
ER_stat time              : 0 s

UNSATISFIABLE
